243
9
246
28
184
199
12
250
98
241
107
112
93
205
42
190
264
9
51
163
56
236
188
12
157
56
207
43
179
247
154
3
121
24
55
258
88
250
214
108
79
96
95
39
11
182
21
219
194
25
31
133
126
147
168
129
194
68
110
45
167
216
141
50
118
232
60
73
137
243
59
171
10
115
57
122
171
107
132
133
106
5
133
208
172
188
159
181
173
6
150
121
136
179
211
163
152
73
66
256
